# opt freq b3lyp/6-31g* int=fine

Template file

0 1
[GEOMETRY]

