# opt freq b3lyp/6-31g* int=fine scrf(solvent=CHCl3)

Template file

0 1
[GEOMETRY]

